
        $ From http://www.csplib.org/Problems/prob009/data/helmut.pdf
        $ Problem number 205
        $ Sequence length : 25
        language ESSENCE' 1.0
        letting sizemaster be 644
        letting sizes be sequence(7,9,13,18,19,22,31,49,53,61,66,68,71,87,93,94,119,164,178,192,199,206,227,239,253)
        